(set-logic QF_LRA)
(declare-fun X0 () Real )
(declare-fun Y0 () Real )
(declare-fun X1 () Real )
(declare-fun Y1 () Real )
(declare-fun X2 () Real )
(declare-fun Y2 () Real )
(declare-fun X3 () Real )
(declare-fun Y3 () Real )
(declare-fun X4 () Real )
(declare-fun Y4 () Real )
(declare-fun X5 () Real )
(declare-fun Y5 () Real )
(declare-fun X6 () Real )
(declare-fun Y6 () Real )
(declare-fun X7 () Real )
(declare-fun Y7 () Real )
(declare-fun X8 () Real )
(declare-fun Y8 () Real )
(declare-fun X9 () Real )
(declare-fun Y9 () Real )
(declare-fun X10 () Real )
(declare-fun Y10 () Real )
(declare-fun X11 () Real )
(declare-fun Y11 () Real )
(declare-fun Z () Real )
(assert ( and  
( or ( <= ( + X0 29 ) X1 )  ( <= ( + X1 7 ) X0 )  ( <= ( + Y0 69 ) Y1 )  ( <= ( + Y1 68 ) Y0 )  )
( or ( <= ( + X0 29 ) X2 )  ( <= ( + X2 25 ) X0 )  ( <= ( + Y0 69 ) Y2 )  ( <= ( + Y2 6 ) Y0 )  )
( or ( <= ( + X0 29 ) X3 )  ( <= ( + X3 17 ) X0 )  ( <= ( + Y0 69 ) Y3 )  ( <= ( + Y3 47 ) Y0 )  )
( or ( <= ( + X0 29 ) X4 )  ( <= ( + X4 81 ) X0 )  ( <= ( + Y0 69 ) Y4 )  ( <= ( + Y4 56 ) Y0 )  )
( or ( <= ( + X0 29 ) X5 )  ( <= ( + X5 28 ) X0 )  ( <= ( + Y0 69 ) Y5 )  ( <= ( + Y5 27 ) Y0 )  )
( or ( <= ( + X0 29 ) X6 )  ( <= ( + X6 37 ) X0 )  ( <= ( + Y0 69 ) Y6 )  ( <= ( + Y6 100 ) Y0 )  )
( or ( <= ( + X0 29 ) X7 )  ( <= ( + X7 38 ) X0 )  ( <= ( + Y0 69 ) Y7 )  ( <= ( + Y7 20 ) Y0 )  )
( or ( <= ( + X0 29 ) X8 )  ( <= ( + X8 65 ) X0 )  ( <= ( + Y0 69 ) Y8 )  ( <= ( + Y8 36 ) Y0 )  )
( or ( <= ( + X0 29 ) X9 )  ( <= ( + X9 13 ) X0 )  ( <= ( + Y0 69 ) Y9 )  ( <= ( + Y9 26 ) Y0 )  )
( or ( <= ( + X0 29 ) X10 )  ( <= ( + X10 66 ) X0 )  ( <= ( + Y0 69 ) Y10 )  ( <= ( + Y10 98 ) Y0 )  )
( or ( <= ( + X0 29 ) X11 )  ( <= ( + X11 88 ) X0 )  ( <= ( + Y0 69 ) Y11 )  ( <= ( + Y11 92 ) Y0 )  )
( or ( <= ( + X1 7 ) X2 )  ( <= ( + X2 25 ) X1 )  ( <= ( + Y1 68 ) Y2 )  ( <= ( + Y2 6 ) Y1 )  )
( or ( <= ( + X1 7 ) X3 )  ( <= ( + X3 17 ) X1 )  ( <= ( + Y1 68 ) Y3 )  ( <= ( + Y3 47 ) Y1 )  )
( or ( <= ( + X1 7 ) X4 )  ( <= ( + X4 81 ) X1 )  ( <= ( + Y1 68 ) Y4 )  ( <= ( + Y4 56 ) Y1 )  )
( or ( <= ( + X1 7 ) X5 )  ( <= ( + X5 28 ) X1 )  ( <= ( + Y1 68 ) Y5 )  ( <= ( + Y5 27 ) Y1 )  )
( or ( <= ( + X1 7 ) X6 )  ( <= ( + X6 37 ) X1 )  ( <= ( + Y1 68 ) Y6 )  ( <= ( + Y6 100 ) Y1 )  )
( or ( <= ( + X1 7 ) X7 )  ( <= ( + X7 38 ) X1 )  ( <= ( + Y1 68 ) Y7 )  ( <= ( + Y7 20 ) Y1 )  )
( or ( <= ( + X1 7 ) X8 )  ( <= ( + X8 65 ) X1 )  ( <= ( + Y1 68 ) Y8 )  ( <= ( + Y8 36 ) Y1 )  )
( or ( <= ( + X1 7 ) X9 )  ( <= ( + X9 13 ) X1 )  ( <= ( + Y1 68 ) Y9 )  ( <= ( + Y9 26 ) Y1 )  )
( or ( <= ( + X1 7 ) X10 )  ( <= ( + X10 66 ) X1 )  ( <= ( + Y1 68 ) Y10 )  ( <= ( + Y10 98 ) Y1 )  )
( or ( <= ( + X1 7 ) X11 )  ( <= ( + X11 88 ) X1 )  ( <= ( + Y1 68 ) Y11 )  ( <= ( + Y11 92 ) Y1 )  )
( or ( <= ( + X2 25 ) X3 )  ( <= ( + X3 17 ) X2 )  ( <= ( + Y2 6 ) Y3 )  ( <= ( + Y3 47 ) Y2 )  )
( or ( <= ( + X2 25 ) X4 )  ( <= ( + X4 81 ) X2 )  ( <= ( + Y2 6 ) Y4 )  ( <= ( + Y4 56 ) Y2 )  )
( or ( <= ( + X2 25 ) X5 )  ( <= ( + X5 28 ) X2 )  ( <= ( + Y2 6 ) Y5 )  ( <= ( + Y5 27 ) Y2 )  )
( or ( <= ( + X2 25 ) X6 )  ( <= ( + X6 37 ) X2 )  ( <= ( + Y2 6 ) Y6 )  ( <= ( + Y6 100 ) Y2 )  )
( or ( <= ( + X2 25 ) X7 )  ( <= ( + X7 38 ) X2 )  ( <= ( + Y2 6 ) Y7 )  ( <= ( + Y7 20 ) Y2 )  )
( or ( <= ( + X2 25 ) X8 )  ( <= ( + X8 65 ) X2 )  ( <= ( + Y2 6 ) Y8 )  ( <= ( + Y8 36 ) Y2 )  )
( or ( <= ( + X2 25 ) X9 )  ( <= ( + X9 13 ) X2 )  ( <= ( + Y2 6 ) Y9 )  ( <= ( + Y9 26 ) Y2 )  )
( or ( <= ( + X2 25 ) X10 )  ( <= ( + X10 66 ) X2 )  ( <= ( + Y2 6 ) Y10 )  ( <= ( + Y10 98 ) Y2 )  )
( or ( <= ( + X2 25 ) X11 )  ( <= ( + X11 88 ) X2 )  ( <= ( + Y2 6 ) Y11 )  ( <= ( + Y11 92 ) Y2 )  )
( or ( <= ( + X3 17 ) X4 )  ( <= ( + X4 81 ) X3 )  ( <= ( + Y3 47 ) Y4 )  ( <= ( + Y4 56 ) Y3 )  )
( or ( <= ( + X3 17 ) X5 )  ( <= ( + X5 28 ) X3 )  ( <= ( + Y3 47 ) Y5 )  ( <= ( + Y5 27 ) Y3 )  )
( or ( <= ( + X3 17 ) X6 )  ( <= ( + X6 37 ) X3 )  ( <= ( + Y3 47 ) Y6 )  ( <= ( + Y6 100 ) Y3 )  )
( or ( <= ( + X3 17 ) X7 )  ( <= ( + X7 38 ) X3 )  ( <= ( + Y3 47 ) Y7 )  ( <= ( + Y7 20 ) Y3 )  )
( or ( <= ( + X3 17 ) X8 )  ( <= ( + X8 65 ) X3 )  ( <= ( + Y3 47 ) Y8 )  ( <= ( + Y8 36 ) Y3 )  )
( or ( <= ( + X3 17 ) X9 )  ( <= ( + X9 13 ) X3 )  ( <= ( + Y3 47 ) Y9 )  ( <= ( + Y9 26 ) Y3 )  )
( or ( <= ( + X3 17 ) X10 )  ( <= ( + X10 66 ) X3 )  ( <= ( + Y3 47 ) Y10 )  ( <= ( + Y10 98 ) Y3 )  )
( or ( <= ( + X3 17 ) X11 )  ( <= ( + X11 88 ) X3 )  ( <= ( + Y3 47 ) Y11 )  ( <= ( + Y11 92 ) Y3 )  )
( or ( <= ( + X4 81 ) X5 )  ( <= ( + X5 28 ) X4 )  ( <= ( + Y4 56 ) Y5 )  ( <= ( + Y5 27 ) Y4 )  )
( or ( <= ( + X4 81 ) X6 )  ( <= ( + X6 37 ) X4 )  ( <= ( + Y4 56 ) Y6 )  ( <= ( + Y6 100 ) Y4 )  )
( or ( <= ( + X4 81 ) X7 )  ( <= ( + X7 38 ) X4 )  ( <= ( + Y4 56 ) Y7 )  ( <= ( + Y7 20 ) Y4 )  )
( or ( <= ( + X4 81 ) X8 )  ( <= ( + X8 65 ) X4 )  ( <= ( + Y4 56 ) Y8 )  ( <= ( + Y8 36 ) Y4 )  )
( or ( <= ( + X4 81 ) X9 )  ( <= ( + X9 13 ) X4 )  ( <= ( + Y4 56 ) Y9 )  ( <= ( + Y9 26 ) Y4 )  )
( or ( <= ( + X4 81 ) X10 )  ( <= ( + X10 66 ) X4 )  ( <= ( + Y4 56 ) Y10 )  ( <= ( + Y10 98 ) Y4 )  )
( or ( <= ( + X4 81 ) X11 )  ( <= ( + X11 88 ) X4 )  ( <= ( + Y4 56 ) Y11 )  ( <= ( + Y11 92 ) Y4 )  )
( or ( <= ( + X5 28 ) X6 )  ( <= ( + X6 37 ) X5 )  ( <= ( + Y5 27 ) Y6 )  ( <= ( + Y6 100 ) Y5 )  )
( or ( <= ( + X5 28 ) X7 )  ( <= ( + X7 38 ) X5 )  ( <= ( + Y5 27 ) Y7 )  ( <= ( + Y7 20 ) Y5 )  )
( or ( <= ( + X5 28 ) X8 )  ( <= ( + X8 65 ) X5 )  ( <= ( + Y5 27 ) Y8 )  ( <= ( + Y8 36 ) Y5 )  )
( or ( <= ( + X5 28 ) X9 )  ( <= ( + X9 13 ) X5 )  ( <= ( + Y5 27 ) Y9 )  ( <= ( + Y9 26 ) Y5 )  )
( or ( <= ( + X5 28 ) X10 )  ( <= ( + X10 66 ) X5 )  ( <= ( + Y5 27 ) Y10 )  ( <= ( + Y10 98 ) Y5 )  )
( or ( <= ( + X5 28 ) X11 )  ( <= ( + X11 88 ) X5 )  ( <= ( + Y5 27 ) Y11 )  ( <= ( + Y11 92 ) Y5 )  )
( or ( <= ( + X6 37 ) X7 )  ( <= ( + X7 38 ) X6 )  ( <= ( + Y6 100 ) Y7 )  ( <= ( + Y7 20 ) Y6 )  )
( or ( <= ( + X6 37 ) X8 )  ( <= ( + X8 65 ) X6 )  ( <= ( + Y6 100 ) Y8 )  ( <= ( + Y8 36 ) Y6 )  )
( or ( <= ( + X6 37 ) X9 )  ( <= ( + X9 13 ) X6 )  ( <= ( + Y6 100 ) Y9 )  ( <= ( + Y9 26 ) Y6 )  )
( or ( <= ( + X6 37 ) X10 )  ( <= ( + X10 66 ) X6 )  ( <= ( + Y6 100 ) Y10 )  ( <= ( + Y10 98 ) Y6 )  )
( or ( <= ( + X6 37 ) X11 )  ( <= ( + X11 88 ) X6 )  ( <= ( + Y6 100 ) Y11 )  ( <= ( + Y11 92 ) Y6 )  )
( or ( <= ( + X7 38 ) X8 )  ( <= ( + X8 65 ) X7 )  ( <= ( + Y7 20 ) Y8 )  ( <= ( + Y8 36 ) Y7 )  )
( or ( <= ( + X7 38 ) X9 )  ( <= ( + X9 13 ) X7 )  ( <= ( + Y7 20 ) Y9 )  ( <= ( + Y9 26 ) Y7 )  )
( or ( <= ( + X7 38 ) X10 )  ( <= ( + X10 66 ) X7 )  ( <= ( + Y7 20 ) Y10 )  ( <= ( + Y10 98 ) Y7 )  )
( or ( <= ( + X7 38 ) X11 )  ( <= ( + X11 88 ) X7 )  ( <= ( + Y7 20 ) Y11 )  ( <= ( + Y11 92 ) Y7 )  )
( or ( <= ( + X8 65 ) X9 )  ( <= ( + X9 13 ) X8 )  ( <= ( + Y8 36 ) Y9 )  ( <= ( + Y9 26 ) Y8 )  )
( or ( <= ( + X8 65 ) X10 )  ( <= ( + X10 66 ) X8 )  ( <= ( + Y8 36 ) Y10 )  ( <= ( + Y10 98 ) Y8 )  )
( or ( <= ( + X8 65 ) X11 )  ( <= ( + X11 88 ) X8 )  ( <= ( + Y8 36 ) Y11 )  ( <= ( + Y11 92 ) Y8 )  )
( or ( <= ( + X9 13 ) X10 )  ( <= ( + X10 66 ) X9 )  ( <= ( + Y9 26 ) Y10 )  ( <= ( + Y10 98 ) Y9 )  )
( or ( <= ( + X9 13 ) X11 )  ( <= ( + X11 88 ) X9 )  ( <= ( + Y9 26 ) Y11 )  ( <= ( + Y11 92 ) Y9 )  )
( or ( <= ( + X10 66 ) X11 )  ( <= ( + X11 88 ) X10 )  ( <= ( + Y10 98 ) Y11 )  ( <= ( + Y11 92 ) Y10 )  )
( >= X0 0)
( <= ( + X0 29) Z)
( >= Y0 0)
( <= ( + Y0 69 ) 173)
( >= X1 0)
( <= ( + X1 7) Z)
( >= Y1 0)
( <= ( + Y1 68 ) 173)
( >= X2 0)
( <= ( + X2 25) Z)
( >= Y2 0)
( <= ( + Y2 6 ) 173)
( >= X3 0)
( <= ( + X3 17) Z)
( >= Y3 0)
( <= ( + Y3 47 ) 173)
( >= X4 0)
( <= ( + X4 81) Z)
( >= Y4 0)
( <= ( + Y4 56 ) 173)
( >= X5 0)
( <= ( + X5 28) Z)
( >= Y5 0)
( <= ( + Y5 27 ) 173)
( >= X6 0)
( <= ( + X6 37) Z)
( >= Y6 0)
( <= ( + Y6 100 ) 173)
( >= X7 0)
( <= ( + X7 38) Z)
( >= Y7 0)
( <= ( + Y7 20 ) 173)
( >= X8 0)
( <= ( + X8 65) Z)
( >= Y8 0)
( <= ( + Y8 36 ) 173)
( >= X9 0)
( <= ( + X9 13) Z)
( >= Y9 0)
( <= ( + Y9 26 ) 173)
( >= X10 0)
( <= ( + X10 66) Z)
( >= Y10 0)
( <= ( + Y10 98 ) 173)
( >= X11 0)
( <= ( + X11 88) Z)
( >= Y11 0)
( <= ( + Y11 92 ) 173)
) )
(minimize Z)
(check-sat)
